78, 107
383, 167
412, 149
141, 132
171, 156
500, 419
392, 191
277, 127
66, 384
224, 350
143, 290
270, 301
404, 413
348, 231
81, 139
453, 290
314, 134
218, 240
194, 427
147, 413
494, 224
85, 353
64, 431
385, 419
417, 344
442, 495
375, 432
123, 281
508, 249
442, 120
184, 225
474, 217
92, 143
443, 110
204, 391
528, 204
169, 435
480, 256
218, 331
190, 236
125, 221
135, 398
537, 120
484, 343
298, 214
425, 109
150, 225
281, 439
81, 149
277, 169
300, 297
507, 222
442, 297
493, 262
430, 132
535, 445
353, 408
113, 166
530, 464
367, 171
115, 310
191, 100
310, 340
473, 499
103, 113
90, 225
266, 179
426, 431
350, 102
265, 414
154, 335
529, 363
509, 111
357, 434
207, 289
280, 371
435, 116
301, 133
351, 189